n=8;
hearts=30;
clubs=53;
spades=15;
diamonds=11;
blocked=3;
m=array2d(1..n, 1..n,[
	3,_,_,_,1,_,_,_,
	_,_,_,_,_,_,_,_,
	_,4,5,_,_,_,_,_,
	_,_,_,_,_,3,_,3,
	_,_,1,_,_,3,_,_,
	_,5,_,_,_,_,_,_,
	_,_,_,_,_,4,_,_,
	_,3,_,5,_,4,_,_
]);
